% Lawrence 10x5 instance (Table 3, instance 1); also called (setf1) or (F1)
n_jobs = 10;
n_machines = 5;
machine = [|2, 1, 5, 4, 3
           |1, 4, 5, 3, 2
           |4, 5, 2, 3, 1
           |2, 1, 5, 3, 4
           |1, 4, 3, 2, 5
           |2, 3, 5, 1, 4
           |4, 5, 2, 3, 1
           |3, 1, 2, 4, 5
           |4, 2, 5, 1, 3
           |5, 4, 3, 2, 1|];
duration = [|21, 53, 95, 55, 34
            |21, 52, 16, 26, 71
            |39, 98, 42, 31, 12
            |77, 55, 79, 66, 77
            |83, 34, 64, 19, 37
            |54, 43, 79, 92, 62
            |69, 77, 87, 87, 93
            |38, 60, 41, 24, 83
            |17, 49, 25, 44, 98
            |77, 79, 43, 75, 96|];
deadline = [883, 1004, 1281, 1165, 956, 1045, 1186, 1284, 1091, 898];
penalty = [34, 1, 71, 40, 56, 37, 95, 28, 35, 94];